NAME: tsp40_21
COMMENT: 40-tsp problem (Padberg/Rinaldi)
TYPE: TSP
DIMENSION: 40
EDGE_WEIGHT_TYPE : EUC_2D
NODE_COORD_SECTION
1 2 28
2 12 7
3 18 24
4 30 3
5 8 37
6 28 13
7 33 37
8 19 16
9 2 14
10 25 37
11 14 31
12 20 37
13 28 39
14 12 10
15 1 15
16 15 31
17 22 20
18 21 19
19 27 22
20 5 21
21 20 6
22 32 32
23 9 27
24 27 30
25 33 33
26 7 33
27 37 36
28 11 21
29 17 18
30 9 20
31 2 39
32 33 0
33 20 28
34 5 28
35 36 15
36 22 8
37 9 12
38 29 2
39 28 31
40 26 7
